BEGIN IONS
TITLE=EMBL_MCF_2_0_HRMS_Library000531
PEPMASS=129.01941
CHARGE=1-
PRECURSOR_TYPE=[M-H]-
PRECURSOR_MZ=129.01941
COLLISION_ENERGY=50.0
SMILES=[H]OC(=O)C([H])=C(C(=O)O[H])C([H])([H])[H]
FORMULA=C5H6O4
THEORETICAL_PRECURSOR_MZ=129.018785
PPM=4.844255818912111
SIMULATED_PRECURSOR_MZ=129.02032113281717
41.2041 0.410228 
55.7698 0.503672 
56.8647 0.461943 
85.0296 100.0 
129.0196 8.036902 
END IONS

BEGIN IONS
TITLE=EMBL_MCF_2_0_HRMS_Library000530
PEPMASS=288.12027
CHARGE=1-
PRECURSOR_TYPE=[M-H]-
PRECURSOR_MZ=288.12027
COLLISION_ENERGY=50.0
SMILES=[H]OC(=O)C([H])([H])N([H])C(=O)C([H])(N([H])C(=O)C([H])([H])C([H])([H])C([H])(C(=O)O[H])N([H])[H])C([H])([H])C([H])([H])[H]
FORMULA=C11H19N3O6
THEORETICAL_PRECURSOR_MZ=288.119562
PPM=2.4573131901105048
SIMULATED_PRECURSOR_MZ=288.1162237791558
58.0299 10.539543 
63.8044 1.329037 
66.035 1.980265 
68.0505 1.750626 
70.0299 3.212654 
71.014 2.78697 
74.0249 100.0 
78.7773 1.540081 
81.9676 1.536318 
82.03 9.743183 
84.0456 6.655591 
86.0249 4.764913 
98.0613 7.009201 
100.0405 22.596298 
100.0766 3.04035 
101.072 3.735061 
102.0562 26.722992 
107.0252 1.806763 
108.0332 1.600322 
109.041 3.852762 
110.0494 2.245496 
112.0405 20.543168 
113.0721 3.01407 
115.0878 97.410618 
123.0568 4.600848 
123.0936 1.926895 
124.0774 2.759699 
125.0725 13.557298 
127.0514 9.777929 
127.0884 2.912753 
128.0356 61.202182 
139.0876 5.407546 
141.0671 35.876193 
145.062 6.872745 
146.0461 12.074662 
151.0878 19.403253 
152.0721 5.432566 
159.0777 73.291645 
167.0467 14.32767 
169.0983 21.948142 
185.0566 8.254362 
195.0778 90.364474 
208.1092 11.884566 
213.0879 17.847771 
214.911 1.572373 
226.1198 56.499744 
252.1003 1.69149 
270.1098 72.892467 
288.1205 66.876126 
END IONS

BEGIN IONS
TITLE=EMBL_MCF_2_0_HRMS_Library000529
PEPMASS=111.02016
CHARGE=1-
PRECURSOR_TYPE=[M-H]-
PRECURSOR_MZ=111.02016
COLLISION_ENERGY=50.0
SMILES=[H]c1c([H])n([H])c(=O)n([H])c1=O
FORMULA=C4H4N2O2
THEORETICAL_PRECURSOR_MZ=111.019453
PPM=6.368253318682487
SIMULATED_PRECURSOR_MZ=111.01946768634916
41.0148 0.329893 
41.9986 89.226766 
55.8055 0.200544 
56.2625 0.194617 
67.0304 0.330612 
68.0258 0.402906 
111.0203 100.0 
112.0515 1.2809 
END IONS

BEGIN IONS
TITLE=EMBL_MCF_2_0_HRMS_Library000528
PEPMASS=289.03333
CHARGE=1-
PRECURSOR_TYPE=[M-H]-
PRECURSOR_MZ=289.03333
COLLISION_ENERGY=50.0
SMILES=[H]OC([H])([H])C(=O)C([H])(O[H])C([H])(O[H])C([H])(O[H])C([H])(O[H])C([H])([H])OP(=O)(O[H])O[H]
FORMULA=C7H15O10P
THEORETICAL_PRECURSOR_MZ=289.032462
PPM=3.00312288094671
SIMULATED_PRECURSOR_MZ=289.0371499748238
78.9591 36.4 
96.9697 100.0 
138.9807 5.7 
168.9909 1.1 
199.0017 8.0 
289.0334 4.9 
END IONS

BEGIN IONS
TITLE=EMBL_MCF_2_0_HRMS_Library000526
PEPMASS=199.00153
CHARGE=1-
PRECURSOR_TYPE=[M-H]-
PRECURSOR_MZ=199.00153
COLLISION_ENERGY=50.0
SMILES=[H]OC([H])(C([H])=O)C([H])(O[H])C([H])([H])OP(=O)(O[H])O[H]
FORMULA=C4H9O7P
THEORETICAL_PRECURSOR_MZ=199.000767
PPM=3.834156076425004
SIMULATED_PRECURSOR_MZ=198.9995206512166
48.9827 2.9 
49.348 2.8 
53.9466 3.3 
59.0142 4.1 
61.1583 3.6 
78.9592 76.1 
96.9698 100.0 
98.9726 4.1 
105.0154 3.0 
138.9806 9.0 
155.814 3.1 
178.8907 12.5 
180.8898 6.0 
181.8955 5.8 
185.6646 3.0 
198.8981 19.7 
END IONS

BEGIN IONS
TITLE=EMBL_MCF_2_0_HRMS_Library000525
PEPMASS=168.99103
CHARGE=1-
PRECURSOR_TYPE=[M-H]-
PRECURSOR_MZ=168.99103
COLLISION_ENERGY=50.0
SMILES=[H]OC([H])([H])C(=O)C([H])([H])OP(=O)(O[H])O[H]
FORMULA=C3H7O6P
THEORETICAL_PRECURSOR_MZ=168.990202
PPM=4.899692350117942
SIMULATED_PRECURSOR_MZ=168.99099888564933
41.9743 1.1 
57.3212 1.1 
65.4245 1.2 
73.0297 1.4 
78.9592 58.7 
83.1032 1.4 
96.9698 100.0 
109.0408 2.6 
END IONS

BEGIN IONS
TITLE=EMBL_MCF_2_0_HRMS_Library000523
PEPMASS=179.05632
CHARGE=1-
PRECURSOR_TYPE=[M-H]-
PRECURSOR_MZ=179.05632
COLLISION_ENERGY=50.0
SMILES=[H]OC([H])([H])C1([H])OC(O[H])(C([H])([H])O[H])C([H])(O[H])C1([H])O[H]
FORMULA=C6H12O6
THEORETICAL_PRECURSOR_MZ=179.05556500000003
PPM=4.216568191944444
SIMULATED_PRECURSOR_MZ=179.0558001099875
59.014 100.0 
71.014 54.6 
80.6407 8.3 
83.7283 6.4 
89.0245 20.2 
111.8054 7.6 
137.9547 7.6 
END IONS

BEGIN IONS
TITLE=EMBL_MCF_2_0_HRMS_Library000522
PEPMASS=480.98196
CHARGE=1-
PRECURSOR_TYPE=[M-H]-
PRECURSOR_MZ=480.98196
COLLISION_ENERGY=50.0
SMILES=[H]OC1([H])C([H])([H])C([H])(n2c([H])c(C([H])([H])[H])c(=O)n([H])c2=O)OC1([H])C([H])([H])OP(=O)(O[H])OP(=O)(O[H])OP(=O)(O[H])O[H]
FORMULA=C10H17N2O14P3
THEORETICAL_PRECURSOR_MZ=480.981444
PPM=1.0728064594621323
SIMULATED_PRECURSOR_MZ=480.98470756507913
78.9591 49.3 
96.9696 2.2 
125.0355 1.2 
158.9256 100.0 
176.936 5.8 
238.892 5.6 
256.9625 11.4 
274.9735 2.4 
383.0055 15.6 
401.0161 10.2 
462.9713 1.8 
480.9817 3.3 
END IONS

BEGIN IONS
TITLE=EMBL_MCF_2_0_HRMS_Library000521
PEPMASS=321.04971
CHARGE=1-
PRECURSOR_TYPE=[M-H]-
PRECURSOR_MZ=321.04971
COLLISION_ENERGY=50.0
SMILES=[H]OC1([H])C([H])([H])C([H])(n2c([H])c(C([H])([H])[H])c(=O)n([H])c2=O)OC1([H])C([H])([H])OP(=O)(O[H])O[H]
FORMULA=C10H15N2O8P
THEORETICAL_PRECURSOR_MZ=321.04878
PPM=2.8967560629962703
SIMULATED_PRECURSOR_MZ=321.04799191783906
78.9592 100.0 
96.9698 23.1 
125.036 34.8 
150.9802 1.1 
176.9961 7.9 
195.0066 24.2 
321.0498 7.9 
END IONS

BEGIN IONS
TITLE=EMBL_MCF_2_0_HRMS_Library000520
PEPMASS=401.01602
CHARGE=1-
PRECURSOR_TYPE=[M-H]-
PRECURSOR_MZ=401.01602
COLLISION_ENERGY=50.0
SMILES=[H]OC1([H])C([H])([H])C([H])(n2c([H])c(C([H])([H])[H])c(=O)n([H])c2=O)OC1([H])C([H])([H])OP(=O)(O[H])OP(=O)(O[H])O[H]
FORMULA=C10H16N2O11P2
THEORETICAL_PRECURSOR_MZ=401.015112
PPM=2.264253822030778
SIMULATED_PRECURSOR_MZ=401.01810553482557
57.7096 1.3 
63.5796 1.2 
76.4174 1.2 
77.8604 1.4 
78.9591 100.0 
89.0248 1.4 
96.9699 4.6 
101.4086 1.3 
125.0358 3.3 
158.9256 37.7 
165.5228 1.2 
176.9363 1.9 
176.9959 2.3 
205.2689 1.4 
239.7238 1.2 
256.9628 5.3 
274.9726 5.6 
283.7541 1.2 
349.8741 1.3 
381.1565 1.2 
383.0045 3.9 
401.0171 5.4 
END IONS

BEGIN IONS
TITLE=EMBL_MCF_2_0_HRMS_Library000519
PEPMASS=306.04977
CHARGE=1-
PRECURSOR_TYPE=[M-H]-
PRECURSOR_MZ=306.04977
COLLISION_ENERGY=50.0
SMILES=[H]OC1([H])C([H])([H])C([H])(n2c([H])c([H])c(N([H])[H])nc2=O)OC1([H])C([H])([H])OP(=O)(O[H])O[H]
FORMULA=C9H14N3O7P
THEORETICAL_PRECURSOR_MZ=306.049114
PPM=2.143446819614259
SIMULATED_PRECURSOR_MZ=306.04803364583574
67.0301 2.0 
78.9591 100.0 
96.9697 36.3 
110.0362 14.8 
150.9801 1.2 
176.996 6.9 
195.0066 19.9 
263.0441 1.2 
306.05 12.6 
END IONS

BEGIN IONS
TITLE=EMBL_MCF_2_0_HRMS_Library000518
PEPMASS=113.03581
CHARGE=1-
PRECURSOR_TYPE=[M-H-H2O]-
PRECURSOR_MZ=113.03581
COLLISION_ENERGY=50.0
SMILES=[H]OC(=O)C([H])(N([H])[H])C([H])([H])C(=O)N([H])[H]
FORMULA=C4H6N2O2
THEORETICAL_PRECURSOR_MZ=113.035103
PPM=6.254694172228546
SIMULATED_PRECURSOR_MZ=113.03413159383635
40.0193 2.6 
41.9986 100.0 
42.788 1.7 
65.3852 1.9 
68.9959 94.3 
69.7614 1.9 
70.0299 2.8 
89.8849 1.9 
93.7816 2.1 
95.0253 20.5 
96.0094 11.9 
97.0173 3.7 
112.9858 4.2 
112.9997 4.3 
113.0359 41.6 
END IONS

BEGIN IONS
TITLE=EMBL_MCF_2_0_HRMS_Library000517
PEPMASS=259.02246
CHARGE=1-
PRECURSOR_TYPE=[M-H]-
PRECURSOR_MZ=259.02246
COLLISION_ENERGY=50.0
SMILES=[H]OC1([H])OC([H])(C([H])([H])OP(=O)(O[H])O[H])C([H])(O[H])C([H])(O[H])C1([H])O[H]
FORMULA=C6H13O9P
THEORETICAL_PRECURSOR_MZ=259.021897
PPM=2.173561411295073
SIMULATED_PRECURSOR_MZ=259.0171029319646
78.9592 47.7 
96.9698 100.0 
138.9804 5.7 
168.9918 1.6 
199.0012 2.5 
259.0226 2.1 
END IONS

BEGIN IONS
TITLE=EMBL_MCF_2_0_HRMS_Library000515
PEPMASS=131.04636
CHARGE=1-
PRECURSOR_TYPE=[M-H]-
PRECURSOR_MZ=131.04636
COLLISION_ENERGY=50.0
SMILES=[H]OC(=O)C([H])(N([H])[H])C([H])([H])C(=O)N([H])[H]
FORMULA=C4H8N2O3
THEORETICAL_PRECURSOR_MZ=131.045668
PPM=5.280601873742153
SIMULATED_PRECURSOR_MZ=131.04476102499694
41.9986 49.7 
58.0299 18.8 
70.03 54.8 
71.0141 3.2 
71.0252 17.4 
72.0092 25.4 
85.0409 1.0 
87.0564 1.2 
95.0252 21.7 
96.0093 2.2 
113.0359 83.1 
114.0199 100.0 
131.0465 47.6 
END IONS

BEGIN IONS
TITLE=EMBL_MCF_2_0_HRMS_Library000513
PEPMASS=808.11859
CHARGE=1-
PRECURSOR_TYPE=[M-H]-
PRECURSOR_MZ=808.11859
COLLISION_ENERGY=50.0
SMILES=[H]OC([H])(C(=O)N([H])C([H])([H])C([H])([H])C(=O)N([H])C([H])([H])C([H])([H])SC(=O)C([H])([H])[H])C(C([H])([H])[H])(C([H])([H])[H])C([H])([H])OP(=O)(O[H])OP(=O)(O[H])OC([H])([H])C1([H])OC([H])(n2c([H])nc3c(N([H])[H])nc([H])nc32)C([H])(O[H])C1([H])OP(=O)(O[H])O[H]
FORMULA=C23H38N7O17P3S
THEORETICAL_PRECURSOR_MZ=808.117955
PPM=0.7857763783857454
SIMULATED_PRECURSOR_MZ=808.1297560160289
87.0158 14.2 
96.9698 29.6 
111.3504 17.5 
134.0475 69.7 
134.3444 14.4 
158.9258 100.0 
265.8868 14.9 
272.9581 41.8 
349.0778 14.3 
381.0895 25.6 
408.0132 55.2 
426.0218 26.2 
461.0582 25.2 
553.7944 14.3 
728.1526 27.6 
END IONS

BEGIN IONS
TITLE=EMBL_MCF_2_0_HRMS_Library000512
PEPMASS=266.08948
CHARGE=1-
PRECURSOR_TYPE=[M-H]-
PRECURSOR_MZ=266.08948
COLLISION_ENERGY=50.0
SMILES=[H]OC([H])([H])C1([H])OC([H])(n2c([H])nc3c(=O)n([H])c(N([H])[H])nc32)C([H])([H])C1([H])O[H]
FORMULA=C10H13N5O4
THEORETICAL_PRECURSOR_MZ=266.08893
PPM=2.066978133872858
SIMULATED_PRECURSOR_MZ=266.0866888893853
59.014 3.4 
107.0363 4.0 
108.0205 12.0 
126.0312 3.5 
133.0158 26.9 
134.0358 2.0 
149.0343 1.4 
150.0423 100.0 
176.0581 12.0 
266.0895 43.3 
END IONS

BEGIN IONS
TITLE=EMBL_MCF_2_0_HRMS_Library000511
PEPMASS=306.0765
CHARGE=1-
PRECURSOR_TYPE=[M-H]-
PRECURSOR_MZ=306.0765
COLLISION_ENERGY=50.0
SMILES=[H]OC(=O)C([H])([H])N([H])C(=O)C([H])(N([H])C(=O)C([H])([H])C([H])([H])C([H])(C(=O)O[H])N([H])[H])C([H])([H])S[H]
FORMULA=C10H17N3O6S
THEORETICAL_PRECURSOR_MZ=306.07598299999995
PPM=1.689123056933685
SIMULATED_PRECURSOR_MZ=306.07704109244963
58.0299 15.0 
68.0506 1.6 
70.0298 2.1 
71.0142 1.7 
72.009 1.2 
74.0248 28.5 
81.0458 1.3 
82.03 3.4 
84.0456 2.0 
86.0249 10.5 
86.0613 2.1 
86.9912 2.4 
87.0564 13.6 
90.0021 3.0 
96.0457 1.8 
97.0411 2.9 
99.0565 34.4 
101.0721 3.9 
102.0562 2.7 
109.0407 4.0 
109.0773 1.8 
111.0567 1.6 
112.0407 5.0 
113.0359 1.2 
116.0176 1.8 
120.0125 1.3 
123.0565 3.2 
124.0407 1.5 
125.036 1.7 
126.0444 1.0 
127.0515 8.6 
128.0355 68.0 
131.0458 3.6 
135.0567 4.7 
137.0725 2.1 
141.0672 8.7 
143.0464 100.0 
145.0619 4.9 
146.046 8.3 
153.0672 7.2 
155.0827 2.1 
160.0075 20.3 
166.0985 4.9 
167.046 7.9 
167.0827 2.7 
170.0337 1.1 
177.0341 6.3 
179.0463 17.0 
181.0622 2.6 
184.1094 2.0 
185.0574 3.8 
192.078 1.3 
197.0572 2.8 
198.0887 3.2 
210.0885 21.2 
228.0982 1.4 
228.4268 3.2 
242.0785 4.1 
254.0783 12.1 
272.0891 13.8 
288.0661 1.3 
306.078 8.7 
END IONS

BEGIN IONS
TITLE=EMBL_MCF_2_0_HRMS_Library000510
PEPMASS=662.1018
CHARGE=1-
PRECURSOR_TYPE=[M-H]-
PRECURSOR_MZ=662.1018
COLLISION_ENERGY=50.0
SMILES=[H]OC1([H])C([H])(n2c([H])nc3c(N([H])[H])nc([H])nc32)OC([H])(C([H])([H])OP(=O)(O[H])OP(=O)([O-])OC([H])([H])C2([H])OC([H])([n+]3c([H])c([H])c([H])c(C(=O)N([H])[H])c3[H])C([H])(O[H])C2([H])O[H])C1([H])O[H]
FORMULA=C21H27N7O14P2
THEORETICAL_PRECURSOR_MZ=662.101302
PPM=0.7521507637712304
SIMULATED_PRECURSOR_MZ=662.0934398570914
78.9591 100.0 
96.9698 12.9 
134.0474 24.0 
158.9256 35.8 
174.98 5.5 
192.9911 2.2 
211.0014 2.1 
272.9574 25.0 
328.0454 14.9 
346.0562 8.5 
408.0123 16.6 
426.0223 13.5 
540.0537 19.0 
END IONS

BEGIN IONS
TITLE=EMBL_MCF_2_0_HRMS_Library000509
PEPMASS=220.0827
CHARGE=1-
PRECURSOR_TYPE=[M-H]-
PRECURSOR_MZ=220.0827
COLLISION_ENERGY=50.0
SMILES=[H]OC([H])([H])C1([H])OC([H])(O[H])C([H])(N([H])C(=O)C([H])([H])[H])C([H])(O[H])C1([H])O[H]
FORMULA=C8H15NO6
THEORETICAL_PRECURSOR_MZ=220.08211400000002
PPM=2.6626425442732677
SIMULATED_PRECURSOR_MZ=220.07924728316132
58.0301 6.9 
59.0139 100.0 
60.1967 3.0 
61.9885 16.5 
71.0138 3.4 
73.7074 2.6 
84.2777 2.4 
85.0377 2.6 
89.0246 8.6 
100.0407 36.8 
101.0248 10.5 
108.1272 3.0 
119.0353 5.4 
128.1581 2.6 
136.7505 2.5 
171.2339 2.7 
184.9635 3.2 
191.032 2.6 
195.3715 3.1 
208.0638 2.7 
END IONS

BEGIN IONS
TITLE=EMBL_MCF_2_0_HRMS_Library000506
PEPMASS=338.9888
CHARGE=1-
PRECURSOR_TYPE=[M-H]-
PRECURSOR_MZ=338.9888
COLLISION_ENERGY=50.0
SMILES=[H]OC1([H])C([H])(OP(=O)(O[H])O[H])OC([H])(C([H])([H])OP(=O)(O[H])O[H])C([H])(O[H])C1([H])O[H]
FORMULA=C6H14O12P2
THEORETICAL_PRECURSOR_MZ=338.988229
PPM=1.6844242695999114
SIMULATED_PRECURSOR_MZ=338.98588122889583
52.3855 2.2 
78.9592 100.0 
84.4312 2.6 
96.9698 48.3 
96.977 4.3 
97.3658 2.4 
105.1195 2.4 
124.7686 2.2 
138.9806 12.1 
158.9256 8.4 
223.0029 2.4 
241.0123 65.2 
END IONS

BEGIN IONS
TITLE=EMBL_MCF_2_0_HRMS_Library000504
PEPMASS=220.0827
CHARGE=1-
PRECURSOR_TYPE=[M-H]-
PRECURSOR_MZ=220.0827
COLLISION_ENERGY=50.0
SMILES=[H]OC([H])([H])C1([H])OC([H])(O[H])C([H])(N([H])C(=O)C([H])([H])[H])C([H])(O[H])C1([H])O[H]
FORMULA=C8H15NO6
THEORETICAL_PRECURSOR_MZ=220.08211400000002
PPM=2.6626425442732677
SIMULATED_PRECURSOR_MZ=220.084199825024
51.453 3.0 
58.0299 5.4 
59.014 100.0 
61.9886 7.7 
65.8724 2.7 
71.014 6.0 
73.9608 3.3 
89.0246 4.7 
100.0406 20.5 
101.0244 3.1 
133.465 2.8 
203.5391 3.3 
END IONS

BEGIN IONS
TITLE=EMBL_MCF_2_0_HRMS_Library000495
PEPMASS=411.0797
CHARGE=1-
PRECURSOR_TYPE=[2M-H]-
PRECURSOR_MZ=411.0797
COLLISION_ENERGY=50.0
SMILES=[H]OC(=O)C([H])([H])C([H])([H])C([H])([H])C([H])([H])C1([H])SSC([H])([H])C1([H])[H]
FORMULA=C8H14O2S2
THEORETICAL_PRECURSOR_MZ=411.07921899999997
PPM=1.1700907703537964
SIMULATED_PRECURSOR_MZ=411.07933985566746
54.5661 2.0 
56.0259 2.4 
61.6479 2.0 
63.9449 20.4 
64.9526 40.4 
91.5094 2.2 
93.0711 15.2 
127.0588 20.0 
159.049 4.6 
160.7301 2.4 
161.9667 2.1 
165.6029 2.0 
168.2872 2.5 
171.0488 100.0 
175.9779 2.0 
205.0367 10.4 
312.4059 2.2 
END IONS

BEGIN IONS
TITLE=EMBL_MCF_2_0_HRMS_Library000494
PEPMASS=205.0362
CHARGE=1-
PRECURSOR_TYPE=[M-H]-
PRECURSOR_MZ=205.0362
COLLISION_ENERGY=50.0
SMILES=[H]OC(=O)C([H])([H])C([H])([H])C([H])([H])C([H])([H])C1([H])SSC([H])([H])C1([H])[H]
FORMULA=C8H14O2S2
THEORETICAL_PRECURSOR_MZ=205.035697
PPM=2.4532313512657455
SIMULATED_PRECURSOR_MZ=205.03650414497488
58.9963 2.7 
59.014 2.9 
63.9448 58.7 
64.9526 100.0 
67.0555 1.0 
72.004 3.0 
73.0123 1.5 
93.0711 27.7 
98.02 2.5 
99.0278 2.8 
127.0589 29.2 
139.0768 3.2 
159.0491 4.5 
163.8003 1.0 
171.0487 54.1 
END IONS

BEGIN IONS
TITLE=EMBL_MCF_2_0_HRMS_Library000493
PEPMASS=129.0921
CHARGE=1-
PRECURSOR_TYPE=[M-H]-
PRECURSOR_MZ=129.0921
COLLISION_ENERGY=50.0
SMILES=[H]OC(=O)C([H])([H])C([H])([H])C([H])([H])C([H])([H])C([H])([H])C([H])([H])[H]
FORMULA=C7H14O2
THEORETICAL_PRECURSOR_MZ=129.091555
PPM=4.221809861909629
SIMULATED_PRECURSOR_MZ=129.09335894777138
40.5203 3.5 
57.0346 5.6 
59.0139 4.6 
64.8876 4.5 
69.1788 4.7 
69.8954 5.6 
70.612 4.0 
84.1053 3.9 
88.9218 4.2 
129.0568 7.3 
129.0923 100.0 
END IONS

BEGIN IONS
TITLE=EMBL_MCF_2_0_HRMS_Library000492
PEPMASS=148.026
CHARGE=1-
PRECURSOR_TYPE=[M-H]-
PRECURSOR_MZ=148.026
COLLISION_ENERGY=50.0
SMILES=[H]SC(=S)N(C([H])([H])C([H])([H])[H])C([H])([H])C([H])([H])[H]
FORMULA=C5H11NS2
THEORETICAL_PRECURSOR_MZ=148.025466
PPM=3.6074873766384337
SIMULATED_PRECURSOR_MZ=148.02533870340943
51.2506 3.1 
75.9448 27.9 
76.9525 21.1 
81.9533 3.7 
132.6821 3.1 
148.0262 100.0 
END IONS

BEGIN IONS
TITLE=EMBL_MCF_2_0_HRMS_Library000491
PEPMASS=519.0521
CHARGE=1-
PRECURSOR_TYPE=[2M-H]-
PRECURSOR_MZ=519.0521
COLLISION_ENERGY=50.0
SMILES=[H]OC([H])([H])C1([H])OC(O[H])(C([H])([H])OP(=O)(O[H])O[H])C([H])(O[H])C1([H])O[H]
FORMULA=C6H13O9P
THEORETICAL_PRECURSOR_MZ=519.0516190000001
PPM=0.9266901061770122
SIMULATED_PRECURSOR_MZ=519.0615082140164
78.9594 35.4 
88.3749 9.3 
96.0471 8.1 
96.9697 100.0 
154.8655 7.9 
186.5459 9.3 
259.0212 19.1 
259.5468 8.9 
END IONS

BEGIN IONS
TITLE=EMBL_MCF_2_0_HRMS_Library000488
PEPMASS=407.2803
CHARGE=1-
PRECURSOR_TYPE=[M-H]-
PRECURSOR_MZ=407.2803
COLLISION_ENERGY=50.0
SMILES=[H]OC(=O)C([H])([H])C([H])([H])C([H])(C([H])([H])[H])C1([H])C([H])([H])C([H])([H])C2([H])C3([H])C([H])(O[H])C([H])([H])C4([H])C([H])([H])C([H])(O[H])C([H])([H])C([H])([H])C4(C([H])([H])[H])C3([H])C([H])([H])C([H])(O[H])C12C([H])([H])[H]
FORMULA=C24H40O5
THEORETICAL_PRECURSOR_MZ=407.27975
PPM=1.3504231428949487
SIMULATED_PRECURSOR_MZ=407.2811857600226
69.0347 1.7 
95.0504 1.6 
251.2019 1.0 
289.2176 3.5 
325.2542 1.5 
343.2649 6.5 
345.2809 1.7 
353.249 1.0 
363.2912 3.3 
407.2808 100.0 
END IONS

BEGIN IONS
TITLE=EMBL_MCF_2_0_HRMS_Library000485
PEPMASS=130.051
CHARGE=1-
PRECURSOR_TYPE=[M-H]-
PRECURSOR_MZ=130.051
COLLISION_ENERGY=50.0
SMILES=[H]OC(=O)C([H])([H])C([H])([H])C(=O)C([H])([H])N([H])[H]
FORMULA=C5H9NO3
THEORETICAL_PRECURSOR_MZ=130.050419
PPM=4.467498101506488
SIMULATED_PRECURSOR_MZ=130.04837003129416
57.022 1.1 
57.0347 5.8 
61.9884 2.4 
84.0093 1.6 
84.0457 2.7 
86.0613 13.6 
112.0406 33.2 
130.0513 100.0 
130.088 3.0 
END IONS

BEGIN IONS
TITLE=EMBL_MCF_2_0_HRMS_Library000484
PEPMASS=135.0312
CHARGE=1-
PRECURSOR_TYPE=[M-H]-
PRECURSOR_MZ=135.0312
COLLISION_ENERGY=50.0
SMILES=[H]Oc1nc([H])nc2nc([H])n([H])c12
FORMULA=C5H4N4O
THEORETICAL_PRECURSOR_MZ=135.030686
PPM=3.8065421663463472
SIMULATED_PRECURSOR_MZ=135.03171284402242
65.0147 3.3 
66.0098 1.4 
92.0256 70.5 
133.0161 1.9 
135.0315 100.0 
END IONS

BEGIN IONS
TITLE=EMBL_MCF_2_0_HRMS_Library000482
PEPMASS=351.0793
CHARGE=1-
PRECURSOR_TYPE=[2M-H]-
PRECURSOR_MZ=351.0793
COLLISION_ENERGY=50.0
SMILES=[H]OC(=O)C([H])([H])C([H])(C(=O)O[H])N([H])C(=O)N([H])[H]
FORMULA=C5H8N2O5
THEORETICAL_PRECURSOR_MZ=351.07882099999995
PPM=1.3643659810547117
SIMULATED_PRECURSOR_MZ=351.0840725648903
74.3269 14.1 
81.9284 10.6 
88.0406 38.4 
95.494 12.3 
109.366 11.7 
115.005 11.9 
125.2514 12.0 
132.0304 100.0 
151.5748 11.2 
154.9101 11.8 
159.1879 12.3 
175.0362 30.7 
233.5061 11.7 
END IONS

BEGIN IONS
TITLE=EMBL_MCF_2_0_HRMS_Library000481
PEPMASS=175.036
CHARGE=1-
PRECURSOR_TYPE=[M-H]-
PRECURSOR_MZ=175.036
COLLISION_ENERGY=50.0
SMILES=[H]OC(=O)C([H])([H])C([H])(C(=O)O[H])N([H])C(=O)N([H])[H]
FORMULA=C5H8N2O5
THEORETICAL_PRECURSOR_MZ=175.035498
PPM=2.8679896692244036
SIMULATED_PRECURSOR_MZ=175.03362764125487
41.9985 2.2 
71.014 7.6 
72.0091 1.2 
88.0406 49.3 
114.0198 4.3 
115.004 14.6 
132.0305 100.0 
175.0362 1.2 
END IONS

BEGIN IONS
TITLE=EMBL_MCF_2_0_HRMS_Library000480
PEPMASS=179.0561
CHARGE=1-
PRECURSOR_TYPE=[M-H]-
PRECURSOR_MZ=179.0561
COLLISION_ENERGY=50.0
SMILES=[H]OC1([H])C([H])(O[H])C([H])(O[H])C([H])(O[H])C([H])(O[H])C1([H])O[H]
FORMULA=C6H12O6
THEORETICAL_PRECURSOR_MZ=179.05556500000003
PPM=2.987899314699621
SIMULATED_PRECURSOR_MZ=179.05977209256196
41.0035 3.8 
44.9983 15.0 
55.019 5.9 
57.0347 7.8 
59.0139 31.9 
69.0349 5.9 
71.014 29.4 
73.0295 13.3 
83.0142 6.6 
85.0297 26.3 
86.6009 2.9 
87.0089 100.0 
87.8248 2.8 
89.0245 6.3 
97.0297 8.3 
99.0091 26.0 
101.0248 9.7 
113.0246 3.7 
117.0196 16.1 
125.0246 14.6 
129.6866 2.5 
135.0455 10.5 
138.8352 3.1 
141.0199 7.7 
159.0304 8.4 
161.0458 54.8 
173.6197 2.9 
178.8414 3.2 
179.0564 60.9 
END IONS

BEGIN IONS
TITLE=EMBL_MCF_2_0_HRMS_Library000475
PEPMASS=179.0561
CHARGE=1-
PRECURSOR_TYPE=[2M-H]-
PRECURSOR_MZ=179.0561
COLLISION_ENERGY=50.0
SMILES=[H]OC([H])([H])C(=O)C([H])([H])O[H]
FORMULA=C3H6O3
THEORETICAL_PRECURSOR_MZ=179.05556500000003
PPM=2.987899314699621
SIMULATED_PRECURSOR_MZ=179.05698657442957
57.6017 3.7 
59.014 100.0 
62.8335 3.2 
71.014 31.4 
79.5648 3.6 
89.0247 10.4 
97.5806 3.3 
111.4724 3.4 
113.3213 3.4 
130.2634 3.6 
137.4588 3.3 
175.3828 3.9 
187.5498 3.5 
END IONS

BEGIN IONS
TITLE=EMBL_MCF_2_0_HRMS_Library000474
PEPMASS=89.0244
CHARGE=1-
PRECURSOR_TYPE=[M-H]-
PRECURSOR_MZ=89.0244
COLLISION_ENERGY=50.0
SMILES=[H]OC([H])([H])C(=O)C([H])([H])O[H]
FORMULA=C3H6O3
THEORETICAL_PRECURSOR_MZ=89.02387000000002
PPM=5.953459448387135
SIMULATED_PRECURSOR_MZ=89.02409589325147
40.2679 2.9 
41.0034 8.6 
43.0169 2.8 
43.019 15.7 
59.014 100.0 
59.0176 5.6 
68.7715 2.7 
71.0141 10.2 
89.0245 26.4 
END IONS

BEGIN IONS
TITLE=EMBL_MCF_2_0_HRMS_Library000473
PEPMASS=315.0807
CHARGE=1-
PRECURSOR_TYPE=[2M-H]-
PRECURSOR_MZ=315.0807
COLLISION_ENERGY=50.0
SMILES=[H]N=C(O[H])N([H])C1([H])N=C(O[H])N=C1O[H]
FORMULA=C4H6N4O3
THEORETICAL_PRECURSOR_MZ=315.080157
PPM=1.7233709833186952
SIMULATED_PRECURSOR_MZ=315.0802858421536
52.0963 19.4 
97.0048 100.0 
100.9452 19.4 
108.2912 19.9 
114.0314 88.8 
125.6897 20.2 
157.0369 58.3 
END IONS

BEGIN IONS
TITLE=EMBL_MCF_2_0_HRMS_Library000472
PEPMASS=157.0367
CHARGE=1-
PRECURSOR_TYPE=[M-H]-
PRECURSOR_MZ=157.0367
COLLISION_ENERGY=50.0
SMILES=[H]N=C(O[H])N([H])C1([H])N=C(O[H])N=C1O[H]
FORMULA=C4H6N4O3
THEORETICAL_PRECURSOR_MZ=157.036166
PPM=3.4004905595288153
SIMULATED_PRECURSOR_MZ=157.03738842139936
41.9986 100.0 
59.0252 5.7 
71.0252 10.6 
72.0092 1.4 
97.0045 58.5 
114.0311 45.7 
140.0103 3.6 
157.0368 4.7 
END IONS

BEGIN IONS
TITLE=EMBL_MCF_2_0_HRMS_Library000471
PEPMASS=611.14465
CHARGE=1-
PRECURSOR_TYPE=[M-H]-
PRECURSOR_MZ=611.14465
COLLISION_ENERGY=50.0
SMILES=[H]OC(=O)C([H])([H])N([H])C(=O)C([H])(N([H])C(=O)C([H])([H])C([H])([H])C([H])(C(=O)O[H])N([H])[H])C([H])([H])SSC([H])([H])C([H])(C(=O)N([H])C([H])([H])C(=O)O[H])N([H])C(=O)C([H])([H])C([H])([H])C([H])(C(=O)O[H])N([H])[H]
FORMULA=C20H32N6O12S2
THEORETICAL_PRECURSOR_MZ=611.1441410000001
PPM=0.8328640752718381
SIMULATED_PRECURSOR_MZ=611.1379200216137
74.0249 20.8 
74.3111 8.6 
99.0567 35.6 
128.0354 63.5 
135.056 9.2 
141.0671 11.3 
143.0465 100.0 
153.0675 14.1 
160.0081 17.3 
170.9453 9.1 
177.0334 10.0 
179.0462 14.1 
197.0562 11.9 
209.2888 8.8 
210.0878 18.2 
254.0777 19.7 
272.0886 49.7 
276.6247 9.5 
288.069 11.3 
304.0598 15.7 
306.0763 66.4 
382.6977 8.0 
407.9245 10.1 
END IONS

BEGIN IONS
TITLE=EMBL_MCF_2_0_HRMS_Library000470
PEPMASS=519.0521
CHARGE=1-
PRECURSOR_TYPE=[2M-H]-
PRECURSOR_MZ=519.0521
COLLISION_ENERGY=50.0
SMILES=[H]OC([H])([H])C1(O[H])OC([H])(C([H])([H])OP(=O)(O[H])O[H])C([H])(O[H])C1([H])O[H]
FORMULA=C6H13O9P
THEORETICAL_PRECURSOR_MZ=519.0516190000001
PPM=0.9266901061770122
SIMULATED_PRECURSOR_MZ=519.0572710155187
78.9592 43.0 
96.9698 100.0 
101.0245 1.1 
138.9804 6.6 
168.9911 4.9 
223.0022 1.3 
259.0228 18.1 
END IONS

BEGIN IONS
TITLE=EMBL_MCF_2_0_HRMS_Library000469
PEPMASS=259.0224
CHARGE=1-
PRECURSOR_TYPE=[M-H]-
PRECURSOR_MZ=259.0224
COLLISION_ENERGY=50.0
SMILES=[H]OC([H])([H])C1(O[H])OC([H])(C([H])([H])OP(=O)(O[H])O[H])C([H])(O[H])C1([H])O[H]
FORMULA=C6H13O9P
THEORETICAL_PRECURSOR_MZ=259.021897
PPM=1.9419207634812519
SIMULATED_PRECURSOR_MZ=259.0233868773333
71.0141 1.1 
78.9592 51.4 
96.9698 100.0 
101.0244 1.4 
138.9804 7.2 
168.9911 2.0 
259.0225 1.2 
END IONS

BEGIN IONS
TITLE=EMBL_MCF_2_0_HRMS_Library000468
PEPMASS=179.0561
CHARGE=1-
PRECURSOR_TYPE=[M-H]-
PRECURSOR_MZ=179.0561
COLLISION_ENERGY=50.0
SMILES=[H]OC([H])([H])C1([H])OC([H])(O[H])C([H])(O[H])C([H])(O[H])C1([H])O[H]
FORMULA=C6H12O6
THEORETICAL_PRECURSOR_MZ=179.05556500000003
PPM=2.987899314699621
SIMULATED_PRECURSOR_MZ=179.05318389774027
47.0624 2.5 
59.014 100.0 
71.014 33.5 
85.0297 4.3 
86.0001 2.5 
89.0247 21.0 
94.8806 2.3 
101.0249 3.1 
109.7871 2.4 
113.0247 3.2 
119.0352 2.5 
128.4333 2.4 
END IONS

BEGIN IONS
TITLE=EMBL_MCF_2_0_HRMS_Library000467
PEPMASS=89.0244
CHARGE=1-
PRECURSOR_TYPE=[M-H]-
PRECURSOR_MZ=89.0244
COLLISION_ENERGY=50.0
SMILES=[H]OC(=O)C([H])(O[H])C([H])([H])[H]
FORMULA=C3H6O3
THEORETICAL_PRECURSOR_MZ=89.02387000000002
PPM=5.953459448387135
SIMULATED_PRECURSOR_MZ=89.02358879411506
41.0034 4.9 
43.019 36.4 
71.014 1.1 
87.0088 1.1 
89.0246 100.0 
END IONS

BEGIN IONS
TITLE=EMBL_MCF_2_0_HRMS_Library000466
PEPMASS=347.0983
CHARGE=1-
PRECURSOR_TYPE=[2M-H]-
PRECURSOR_MZ=347.0983
COLLISION_ENERGY=50.0
SMILES=[H]OC(=O)C1=C([H])C([H])(O[H])C([H])(O[H])C([H])(O[H])C1([H])[H]
FORMULA=C7H10O5
THEORETICAL_PRECURSOR_MZ=347.09782499999994
PPM=1.3684902809497455
SIMULATED_PRECURSOR_MZ=347.0956596180675
55.0192 2.8 
59.0141 1.7 
64.4916 1.5 
69.0346 1.8 
71.0143 2.1 
73.0296 31.9 
81.0349 4.3 
83.0505 9.7 
85.0296 4.1 
90.2877 1.4 
91.2634 1.4 
93.0272 3.0 
93.0347 62.6 
99.0087 8.9 
99.0452 8.9 
111.0453 29.8 
129.0196 3.3 
129.0566 1.5 
137.0246 24.7 
143.0353 4.6 
155.0355 16.6 
166.9746 1.6 
173.0457 100.0 
185.1559 1.3 
344.7672 1.5 
END IONS

BEGIN IONS
TITLE=EMBL_MCF_2_0_HRMS_Library000465
PEPMASS=173.0455
CHARGE=1-
PRECURSOR_TYPE=[M-H]-
PRECURSOR_MZ=173.0455
COLLISION_ENERGY=50.0
SMILES=[H]OC(=O)C1=C([H])C([H])(O[H])C([H])(O[H])C([H])(O[H])C1([H])[H]
FORMULA=C7H10O5
THEORETICAL_PRECURSOR_MZ=173.045
PPM=2.8894218267883978
SIMULATED_PRECURSOR_MZ=173.0477272991401
40.6542 1.0 
40.8726 1.0 
41.0034 3.4 
43.019 16.9 
44.9984 2.3 
55.019 9.0 
57.0348 3.3 
58.0062 4.1 
59.0141 5.9 
65.0399 3.4 
69.0347 3.7 
71.0139 7.7 
71.0504 1.5 
73.0296 59.2 
81.0348 8.7 
83.0146 1.2 
83.0504 23.4 
85.0297 8.3 
93.0347 100.0 
99.0088 11.9 
99.0452 11.3 
111.0454 28.9 
113.2265 1.1 
129.0197 4.5 
129.056 1.2 
137.0246 24.2 
143.0353 3.9 
155.0356 8.2 
173.046 14.5 
END IONS

BEGIN IONS
TITLE=EMBL_MCF_2_0_HRMS_Library000464
PEPMASS=195.051
CHARGE=1-
PRECURSOR_TYPE=[M-H]-
PRECURSOR_MZ=195.051
COLLISION_ENERGY=50.0
SMILES=[H]OC(=O)C([H])(O[H])C([H])(O[H])C([H])(O[H])C([H])(O[H])C([H])([H])O[H]
FORMULA=C6H12O7
THEORETICAL_PRECURSOR_MZ=195.05048000000002
PPM=2.6659765203659234
SIMULATED_PRECURSOR_MZ=195.0512434986898
44.9983 1.5 
55.019 1.3 
56.9983 2.4 
57.0347 8.6 
59.0139 31.0 
71.014 8.2 
72.9933 1.3 
75.0089 100.0 
85.0295 8.3 
87.0089 14.4 
89.0247 6.8 
99.0089 22.4 
101.0243 1.0 
129.0196 34.2 
159.0302 3.3 
177.0408 4.4 
195.0512 60.6 
END IONS

BEGIN IONS
TITLE=EMBL_MCF_2_0_HRMS_Library000459
PEPMASS=345.2031
CHARGE=1-
PRECURSOR_TYPE=[2M-H]-
PRECURSOR_MZ=345.2031
COLLISION_ENERGY=50.0
SMILES=[H]OC(=O)C([H])(N([H])C(=O)C([H])([H])[H])C([H])([H])C([H])(C([H])([H])[H])C([H])([H])[H]
FORMULA=C8H15NO3
THEORETICAL_PRECURSOR_MZ=345.20256299999994
PPM=1.5556083807677026
SIMULATED_PRECURSOR_MZ=345.2040155176422
50.5156 6.5 
57.9343 6.9 
72.682 6.8 
130.0874 100.0 
139.2626 6.9 
169.7643 6.7 
172.0982 74.8 
220.1878 7.1 
249.6216 6.8 
END IONS

BEGIN IONS
TITLE=EMBL_MCF_2_0_HRMS_Library000455
PEPMASS=146.0459
CHARGE=1-
PRECURSOR_TYPE=[M-H]-
PRECURSOR_MZ=146.0459
COLLISION_ENERGY=50.0
SMILES=[H]OC(=O)C([H])(N([H])C(=O)C([H])([H])[H])C([H])([H])O[H]
FORMULA=C5H9NO4
THEORETICAL_PRECURSOR_MZ=146.045334
PPM=3.87550895663721
SIMULATED_PRECURSOR_MZ=146.04462032641365
41.0033 14.1 
41.9986 3.8 
57.0347 11.8 
58.0299 1.7 
60.9932 3.2 
70.03 2.0 
72.0456 22.1 
74.0248 100.0 
84.0456 52.6 
98.0248 36.8 
104.0355 11.2 
116.0355 48.2 
146.0461 25.0 
END IONS

BEGIN IONS
TITLE=EMBL_MCF_2_0_HRMS_Library000454
PEPMASS=519.0521
CHARGE=1-
PRECURSOR_TYPE=[2M-H]-
PRECURSOR_MZ=519.0521
COLLISION_ENERGY=50.0
SMILES=[H]OC([H])([H])C1([H])OC([H])(OP(=O)(O[H])O[H])C([H])(O[H])C([H])(O[H])C1([H])O[H]
FORMULA=C6H13O9P
THEORETICAL_PRECURSOR_MZ=519.0516190000001
PPM=0.9266901061770122
SIMULATED_PRECURSOR_MZ=519.0540909246683
78.9591 100.0 
96.9697 30.8 
138.9802 5.7 
241.0123 5.6 
259.0225 44.5 
END IONS

BEGIN IONS
TITLE=EMBL_MCF_2_0_HRMS_Library000453
PEPMASS=259.0224
CHARGE=1-
PRECURSOR_TYPE=[M-H]-
PRECURSOR_MZ=259.0224
COLLISION_ENERGY=50.0
SMILES=[H]OC([H])([H])C1([H])OC([H])(OP(=O)(O[H])O[H])C([H])(O[H])C([H])(O[H])C1([H])O[H]
FORMULA=C6H13O9P
THEORETICAL_PRECURSOR_MZ=259.021897
PPM=1.9419207634812519
SIMULATED_PRECURSOR_MZ=259.0200451875958
78.9592 100.0 
96.9697 28.8 
138.9802 4.8 
241.0117 3.4 
259.0226 12.2 
END IONS

BEGIN IONS
TITLE=EMBL_MCF_2_0_HRMS_Library000450
PEPMASS=281.03091
CHARGE=1-
PRECURSOR_TYPE=[2M-H]-
PRECURSOR_MZ=281.03091
COLLISION_ENERGY=50.0
SMILES=[H]OP(=O)(O[H])OC([H])([H])C([H])([H])N([H])[H]
FORMULA=C2H8NO4P
THEORETICAL_PRECURSOR_MZ=281.03036699999996
PPM=1.9321755362122213
SIMULATED_PRECURSOR_MZ=281.03028862182754
78.9593 100.0 
94.994 6.1 
140.0116 30.8 
264.9486 5.2 
281.2487 25.9 
END IONS

BEGIN IONS
TITLE=EMBL_MCF_2_0_HRMS_Library000448
PEPMASS=519.0521
CHARGE=1-
PRECURSOR_TYPE=[2M-H]-
PRECURSOR_MZ=519.0521
COLLISION_ENERGY=50.0
SMILES=[H]OC([H])([H])C1([H])OC([H])(OP(=O)(O[H])O[H])C([H])(O[H])C([H])(O[H])C1([H])O[H]
FORMULA=C6H13O9P
THEORETICAL_PRECURSOR_MZ=519.0516190000001
PPM=0.9266901061770122
SIMULATED_PRECURSOR_MZ=519.0450604474347
78.9591 100.0 
96.9697 17.5 
138.9804 7.5 
241.012 10.4 
259.0226 34.3 
END IONS

BEGIN IONS
TITLE=EMBL_MCF_2_0_HRMS_Library000447
PEPMASS=259.0224
CHARGE=1-
PRECURSOR_TYPE=[M-H]-
PRECURSOR_MZ=259.0224
COLLISION_ENERGY=50.0
SMILES=[H]OC([H])([H])C1([H])OC([H])(OP(=O)(O[H])O[H])C([H])(O[H])C([H])(O[H])C1([H])O[H]
FORMULA=C6H13O9P
THEORETICAL_PRECURSOR_MZ=259.021897
PPM=1.9419207634812519
SIMULATED_PRECURSOR_MZ=259.02479041599815
78.9592 100.0 
96.9697 13.7 
138.9804 7.1 
241.012 6.5 
259.0226 6.7 
END IONS

BEGIN IONS
TITLE=EMBL_MCF_2_0_HRMS_Library000446
PEPMASS=381.1159
CHARGE=1-
PRECURSOR_TYPE=[2M-H]-
PRECURSOR_MZ=381.1159
COLLISION_ENERGY=50.0
SMILES=[H]OC(=O)C([H])(N([H])C(=O)C([H])([H])[H])C([H])([H])C([H])([H])SC([H])([H])[H]
FORMULA=C7H13NO3S
THEORETICAL_PRECURSOR_MZ=381.11540499999995
PPM=1.298819185904185
SIMULATED_PRECURSOR_MZ=381.11036967140643
80.996 8.3 
82.3662 8.2 
84.0455 7.9 
98.0615 8.7 
142.0515 34.4 
148.0439 44.2 
190.0543 100.0 
195.3876 8.3 
291.6052 9.1 
346.3647 8.0 
END IONS

BEGIN IONS
TITLE=EMBL_MCF_2_0_HRMS_Library000445
PEPMASS=190.0543
CHARGE=1-
PRECURSOR_TYPE=[M-H]-
PRECURSOR_MZ=190.0543
COLLISION_ENERGY=50.0
SMILES=[H]OC(=O)C([H])(N([H])C(=O)C([H])([H])[H])C([H])([H])C([H])([H])SC([H])([H])[H]
FORMULA=C7H13NO3S
THEORETICAL_PRECURSOR_MZ=190.05379
PPM=2.6834508273672015
SIMULATED_PRECURSOR_MZ=190.05288989648895
46.9962 100.0 
84.0457 12.6 
98.0614 8.6 
112.0409 4.4 
142.0512 22.3 
148.0441 28.0 
190.0548 12.8 
END IONS

BEGIN IONS
TITLE=EMBL_MCF_2_0_HRMS_Library000442
PEPMASS=375.2249
CHARGE=1-
PRECURSOR_TYPE=[2M-H]-
PRECURSOR_MZ=375.2249
COLLISION_ENERGY=50.0
SMILES=[H]OC(=O)C([H])(N([H])C(=O)C([H])([H])[H])C([H])([H])C([H])([H])C([H])([H])C([H])([H])N([H])[H]
FORMULA=C8H16N2O3
THEORETICAL_PRECURSOR_MZ=375.224361
PPM=1.436473896755861
SIMULATED_PRECURSOR_MZ=375.22524082740006
52.2306 2.7 
58.03 6.9 
71.295 2.6 
93.0197 2.9 
95.7515 3.0 
97.0776 3.9 
97.9969 2.8 
108.6096 3.1 
143.1202 6.4 
145.0984 100.0 
187.109 77.7 
END IONS

BEGIN IONS
TITLE=EMBL_MCF_2_0_HRMS_Library000441
PEPMASS=187.1088
CHARGE=1-
PRECURSOR_TYPE=[M-H]-
PRECURSOR_MZ=187.1088
COLLISION_ENERGY=50.0
SMILES=[H]OC(=O)C([H])(N([H])C(=O)C([H])([H])[H])C([H])([H])C([H])([H])C([H])([H])C([H])([H])N([H])[H]
FORMULA=C8H16N2O3
THEORETICAL_PRECURSOR_MZ=187.108268
PPM=2.84327360666205
SIMULATED_PRECURSOR_MZ=187.10811729953033
58.03 10.0 
97.0774 3.2 
99.0929 1.1 
126.0922 1.6 
143.1192 11.0 
145.0985 100.0 
187.1091 16.1 
END IONS

BEGIN IONS
TITLE=EMBL_MCF_2_0_HRMS_Library000437
PEPMASS=233.1003
CHARGE=1-
PRECURSOR_TYPE=[2M-H]-
PRECURSOR_MZ=233.1003
COLLISION_ENERGY=50.0
SMILES=[H]N=C(N([H])[H])N([H])C([H])([H])C(=O)O[H]
FORMULA=C3H7N3O2
THEORETICAL_PRECURSOR_MZ=233.099829
PPM=2.0205935029002147
SIMULATED_PRECURSOR_MZ=233.0984376177463
74.0249 100.0 
78.8728 3.4 
91.3598 4.0 
94.3367 4.7 
116.0467 23.2 
119.5169 4.1 
164.6567 3.6 
180.056 3.7 
222.524 4.2 
233.1555 14.7 
END IONS

BEGIN IONS
TITLE=EMBL_MCF_2_0_HRMS_Library000435
PEPMASS=202.1085
CHARGE=1-
PRECURSOR_TYPE=[M-H]-
PRECURSOR_MZ=202.1085
COLLISION_ENERGY=50.0
SMILES=[H]C([H])([H])C(=O)OC([H])(C([H])([H])C(=O)[O-])C([H])([H])[N+](C([H])([H])[H])(C([H])([H])[H])C([H])([H])[H]
FORMULA=C9H17NO4
THEORETICAL_PRECURSOR_MZ=202.107934
PPM=2.800483824608651
SIMULATED_PRECURSOR_MZ=202.11176482371488
58.041 4.5 
59.014 100.0 
79.3438 4.0 
83.5953 4.3 
123.4684 4.0 
127.9648 3.8 
150.6219 4.4 
155.87 3.9 
END IONS

BEGIN IONS
TITLE=EMBL_MCF_2_0_HRMS_Library000433
PEPMASS=229.01189
CHARGE=1-
PRECURSOR_TYPE=[M-H]-
PRECURSOR_MZ=229.01189
COLLISION_ENERGY=50.0
SMILES=[H]OC1([H])OC([H])(C([H])([H])OP(=O)(O[H])O[H])C([H])(O[H])C1([H])O[H]
FORMULA=C5H11O8P
THEORETICAL_PRECURSOR_MZ=229.01133199999998
PPM=2.436560650248831
SIMULATED_PRECURSOR_MZ=229.01317036661644
71.0139 1.8 
78.9591 82.0 
96.9697 100.0 
138.9803 9.9 
229.0112 1.5 
END IONS

BEGIN IONS
TITLE=EMBL_MCF_2_0_HRMS_Library000432
PEPMASS=351.0569
CHARGE=1-
PRECURSOR_TYPE=[2M-H]-
PRECURSOR_MZ=351.0569
COLLISION_ENERGY=50.0
SMILES=[H]OC1([H])OC2([H])C([H])(O[H])C(=O)OC2([H])C1([H])O[H]
FORMULA=C6H8O6
THEORETICAL_PRECURSOR_MZ=351.056355
PPM=1.5524572970292743
SIMULATED_PRECURSOR_MZ=351.0519136945141
75.4699 39.9 
77.4545 36.8 
85.0297 67.7 
96.9602 100.0 
111.7126 34.8 
169.8994 40.4 
255.3069 42.3 
END IONS

BEGIN IONS
TITLE=EMBL_MCF_2_0_HRMS_Library000431
PEPMASS=175.0248
CHARGE=1-
PRECURSOR_TYPE=[M-H]-
PRECURSOR_MZ=175.0248
COLLISION_ENERGY=50.0
SMILES=[H]OC1([H])OC2([H])C([H])(O[H])C(=O)OC2([H])C1([H])O[H]
FORMULA=C6H8O6
THEORETICAL_PRECURSOR_MZ=175.024265
PPM=3.056719021131585
SIMULATED_PRECURSOR_MZ=175.02765252912252
40.3755 1.1 
40.3968 1.2 
41.0034 4.1 
41.1153 1.1 
43.0191 1.8 
44.9983 17.1 
50.8926 1.0 
51.0241 2.5 
55.019 11.4 
55.0216 1.1 
56.9986 1.3 
57.0347 25.1 
59.014 39.1 
59.1432 1.2 
59.147 1.2 
67.019 1.2 
68.9984 2.8 
71.0141 9.3 
72.9934 1.8 
73.0298 2.0 
75.0089 3.7 
83.0141 3.0 
84.0218 6.9 
85.0297 100.0 
87.009 8.5 
95.014 21.5 
99.0088 8.9 
103.0036 2.8 
111.0096 1.6 
113.0247 69.5 
115.0043 5.6 
117.0197 1.6 
174.8348 1.2 
175.0257 2.4 
END IONS

BEGIN IONS
TITLE=EMBL_MCF_2_0_HRMS_Library000420
PEPMASS=349.1841
CHARGE=1-
PRECURSOR_TYPE=[2M-H]-
PRECURSOR_MZ=349.1841
COLLISION_ENERGY=50.0
SMILES=[H]OC(=O)C([H])(N([H])[H])C([H])([H])C([H])([H])C([H])([H])N([H])C(=O)N([H])[H]
FORMULA=C6H13N3O3
THEORETICAL_PRECURSOR_MZ=349.183559
PPM=1.549328386329748
SIMULATED_PRECURSOR_MZ=349.17782769410087
51.6019 1.5 
52.4898 1.5 
71.5754 1.5 
131.0828 100.0 
174.0883 18.7 
175.2295 2.0 
277.0486 1.9 
END IONS

BEGIN IONS
TITLE=EMBL_MCF_2_0_HRMS_Library000412
PEPMASS=149.0455
CHARGE=1-
PRECURSOR_TYPE=[M-H]-
PRECURSOR_MZ=149.0455
COLLISION_ENERGY=50.0
SMILES=[H]OC([H])([H])C1([H])OC([H])(O[H])C([H])(O[H])C1([H])O[H]
FORMULA=C5H10O5
THEORETICAL_PRECURSOR_MZ=149.045
PPM=3.354691536224619
SIMULATED_PRECURSOR_MZ=149.04487829289536
41.0033 1.6 
43.019 1.3 
59.014 100.0 
71.014 18.0 
85.0296 1.2 
89.0246 14.8 
89.031 1.2 
END IONS

BEGIN IONS
TITLE=EMBL_MCF_2_0_HRMS_Library000411
PEPMASS=419.0678
CHARGE=1-
PRECURSOR_TYPE=[2M-H]-
PRECURSOR_MZ=419.0678
COLLISION_ENERGY=50.0
SMILES=[H]OC(=O)C([H])(O[H])C([H])(O[H])C([H])(O[H])C([H])(O[H])C(=O)O[H]
FORMULA=C6H10O8
THEORETICAL_PRECURSOR_MZ=419.067315
PPM=1.157331966987701
SIMULATED_PRECURSOR_MZ=419.0703226101161
55.106 3.9 
55.1091 3.6 
57.0348 9.7 
59.014 15.3 
71.0138 19.0 
72.9934 9.6 
85.0296 73.6 
85.0356 5.4 
89.0246 9.2 
114.0735 3.9 
133.0147 10.0 
147.0302 6.4 
168.8804 3.6 
173.0114 3.8 
191.0204 37.1 
209.0304 100.0 
END IONS

BEGIN IONS
TITLE=EMBL_MCF_2_0_HRMS_Library000410
PEPMASS=209.0303
CHARGE=1-
PRECURSOR_TYPE=[M-H]-
PRECURSOR_MZ=209.0303
COLLISION_ENERGY=50.0
SMILES=[H]OC(=O)C([H])(O[H])C([H])(O[H])C([H])(O[H])C([H])(O[H])C(=O)O[H]
FORMULA=C6H10O8
THEORETICAL_PRECURSOR_MZ=209.02974500000002
PPM=2.6551245134582326
SIMULATED_PRECURSOR_MZ=209.03243289588497
55.019 4.7 
57.0347 20.3 
59.014 24.9 
68.9984 1.5 
71.014 29.6 
72.9933 7.0 
73.0297 1.8 
75.0089 6.6 
85.0297 100.0 
87.009 3.2 
89.0246 11.3 
99.0091 1.3 
103.004 2.1 
111.0089 4.3 
115.0039 2.3 
129.0198 7.3 
133.0145 10.3 
147.0302 3.6 
173.0091 1.6 
191.0202 16.9 
209.0306 15.0 
END IONS

BEGIN IONS
TITLE=EMBL_MCF_2_0_HRMS_Library000407
PEPMASS=437.214
CHARGE=1-
PRECURSOR_TYPE=[2M-H]-
PRECURSOR_MZ=437.214
COLLISION_ENERGY=50.0
SMILES=[H]OC(=O)C([H])([H])C([H])([H])N([H])C(=O)C([H])(O[H])C(C([H])([H])[H])(C([H])([H])[H])C([H])([H])O[H]
FORMULA=C9H17NO5
THEORETICAL_PRECURSOR_MZ=437.213523
PPM=1.091000106118407
SIMULATED_PRECURSOR_MZ=437.21280602150955
63.6753 1.2 
71.014 11.0 
71.0503 17.1 
88.0405 98.0 
99.0455 4.5 
101.6301 1.1 
109.2418 1.1 
116.0714 2.3 
119.0852 1.0 
146.0824 54.8 
158.2394 1.1 
218.1036 100.0 
267.4933 1.2 
274.4485 1.2 
387.2965 1.1 
END IONS

BEGIN IONS
TITLE=EMBL_MCF_2_0_HRMS_Library000406
PEPMASS=218.10342
CHARGE=1-
PRECURSOR_TYPE=[M-H]-
PRECURSOR_MZ=218.10342
COLLISION_ENERGY=50.0
SMILES=[H]OC(=O)C([H])([H])C([H])([H])N([H])C(=O)C([H])(O[H])C(C([H])([H])[H])(C([H])([H])[H])C([H])([H])O[H]
FORMULA=C9H17NO5
THEORETICAL_PRECURSOR_MZ=218.10284900000002
PPM=2.6180309088005034
SIMULATED_PRECURSOR_MZ=218.09927515918866
59.014 2.1 
71.014 15.1 
71.0504 32.3 
72.0093 1.1 
88.0405 100.0 
99.0454 7.9 
116.0719 3.9 
129.056 1.7 
146.0825 66.0 
218.1035 19.8 
END IONS

BEGIN IONS
TITLE=EMBL_MCF_2_0_HRMS_Library000404
PEPMASS=160.0615
CHARGE=1-
PRECURSOR_TYPE=[M-H]-
PRECURSOR_MZ=160.0615
COLLISION_ENERGY=50.0
SMILES=[H]OC(=O)C([H])([H])C([H])([H])C([H])([H])C([H])(C(=O)O[H])N([H])[H]
FORMULA=C6H11NO4
THEORETICAL_PRECURSOR_MZ=160.060984
PPM=3.2237712596132977
SIMULATED_PRECURSOR_MZ=160.05704346759353
40.3358 1.1 
58.056 1.1 
59.0139 1.3 
70.1317 1.3 
95.5567 1.2 
98.0532 1.9 
98.0613 34.8 
99.045 1.7 
112.0894 1.2 
114.0563 2.9 
116.0719 100.0 
117.9288 1.8 
138.1698 1.1 
142.0512 66.7 
160.0618 88.2 
END IONS

BEGIN IONS
TITLE=EMBL_MCF_2_0_HRMS_Library000396
PEPMASS=181.0718
CHARGE=1-
PRECURSOR_TYPE=[M-H]-
PRECURSOR_MZ=181.0718
COLLISION_ENERGY=50.0
SMILES=[H]OC([H])([H])C([H])(O[H])C([H])(O[H])C([H])(O[H])C([H])(O[H])C([H])([H])O[H]
FORMULA=C6H14O6
THEORETICAL_PRECURSOR_MZ=181.07121500000002
PPM=3.230773041272872
SIMULATED_PRECURSOR_MZ=181.07528121734032
43.019 6.3 
55.0191 8.8 
57.0347 4.8 
59.014 100.0 
69.035 2.5 
71.014 71.2 
73.0296 26.2 
78.0367 1.1 
83.014 3.3 
85.0296 11.9 
89.0246 49.6 
91.0402 1.2 
97.0296 4.1 
101.0246 37.5 
103.0401 1.3 
113.0248 5.6 
115.0402 2.7 
119.035 8.3 
124.476 1.1 
131.0355 2.9 
149.0468 1.6 
163.0615 4.8 
180.8403 2.0 
181.0721 53.3 
END IONS

BEGIN IONS
TITLE=EMBL_MCF_2_0_HRMS_Library000384
PEPMASS=168.0666
CHARGE=1-
PRECURSOR_TYPE=[M-H]-
PRECURSOR_MZ=168.0666
COLLISION_ENERGY=50.0
SMILES=[H]Oc1c(C([H])([H])[H])nc([H])c(C([H])([H])O[H])c1C([H])([H])O[H]
FORMULA=C8H11NO3
THEORETICAL_PRECURSOR_MZ=168.066069
PPM=3.1594717669940517
SIMULATED_PRECURSOR_MZ=168.0649682951788
92.0509 2.8 
107.0378 9.7 
108.0457 26.0 
110.0613 4.3 
120.0455 2.4 
121.0535 17.1 
122.0613 61.4 
135.0327 4.9 
136.041 1.3 
138.0562 25.3 
150.0563 100.0 
166.0511 26.0 
168.0669 29.7 
END IONS

BEGIN IONS
TITLE=EMBL_MCF_2_0_HRMS_Library000381
PEPMASS=131.0826
CHARGE=1-
PRECURSOR_TYPE=[M-H]-
PRECURSOR_MZ=131.0826
COLLISION_ENERGY=50.0
SMILES=[H]OC(=O)C([H])(N([H])[H])C([H])([H])C([H])([H])C([H])([H])N([H])[H]
FORMULA=C5H12N2O2
THEORETICAL_PRECURSOR_MZ=131.082053
PPM=4.172958749826885
SIMULATED_PRECURSOR_MZ=131.0825886790199
61.9885 29.2 
83.0616 1.4 
85.0773 1.0 
87.0453 5.4 
131.0352 2.6 
131.0828 100.0 
END IONS

BEGIN IONS
TITLE=EMBL_MCF_2_0_HRMS_Library000380
PEPMASS=221.06023
CHARGE=1-
PRECURSOR_TYPE=[M-H]-
PRECURSOR_MZ=221.06023
COLLISION_ENERGY=50.0
SMILES=[H]OC(=O)C([H])(N([H])[H])C([H])([H])SC([H])([H])C([H])([H])C([H])(C(=O)O[H])N([H])[H]
FORMULA=C7H14N2O4S
THEORETICAL_PRECURSOR_MZ=221.059604
PPM=2.831815440973539
SIMULATED_PRECURSOR_MZ=221.0613125820904
67.0813 2.5 
82.3162 2.5 
120.0019 4.2 
120.0127 74.5 
134.0283 100.0 
135.4574 2.6 
221.0611 18.6 
221.1555 6.9 
END IONS

BEGIN IONS
TITLE=EMBL_MCF_2_0_HRMS_Library000379
PEPMASS=130.051
CHARGE=1-
PRECURSOR_TYPE=[M-H]-
PRECURSOR_MZ=130.051
COLLISION_ENERGY=50.0
SMILES=[H]OC(=O)C1([H])N([H])C([H])([H])C([H])(O[H])C1([H])[H]
FORMULA=C5H9NO3
THEORETICAL_PRECURSOR_MZ=130.050419
PPM=4.467498101506488
SIMULATED_PRECURSOR_MZ=130.04943890760472
57.0346 1.7 
66.035 2.6 
68.0507 5.4 
71.0139 6.4 
73.0296 4.1 
82.0298 1.7 
84.0456 7.8 
86.0248 2.8 
88.0404 1.3 
112.0406 2.8 
128.0355 32.7 
130.0512 100.0 
130.087 10.8 
END IONS

BEGIN IONS
TITLE=EMBL_MCF_2_0_HRMS_Library000378
PEPMASS=161.0932
CHARGE=1-
PRECURSOR_TYPE=[M-H]-
PRECURSOR_MZ=161.0932
COLLISION_ENERGY=50.0
SMILES=[H]OC(=O)C([H])(N([H])[H])C([H])([H])C([H])([H])C([H])(O[H])C([H])([H])N([H])[H]
FORMULA=C6H14N2O3
THEORETICAL_PRECURSOR_MZ=161.092618
PPM=3.612828491051776
SIMULATED_PRECURSOR_MZ=161.09374641946536
58.0299 5.4 
70.0299 1.0 
72.0455 2.8 
73.0296 1.0 
74.0249 3.0 
84.0457 3.8 
97.0301 1.1 
102.0561 3.7 
114.0563 1.8 
115.0878 15.3 
125.0722 5.8 
126.0566 1.2 
141.0668 5.4 
143.0828 14.4 
159.0778 3.7 
161.0934 100.0 
END IONS

BEGIN IONS
TITLE=EMBL_MCF_2_0_HRMS_Library000377
PEPMASS=124.0074
CHARGE=1-
PRECURSOR_TYPE=[M-H]-
PRECURSOR_MZ=124.0074
COLLISION_ENERGY=50.0
SMILES=[H]OS(=O)(=O)C([H])([H])C([H])([H])N([H])[H]
FORMULA=C2H7NO3S
THEORETICAL_PRECURSOR_MZ=124.00684000000001
PPM=4.515879930437793
SIMULATED_PRECURSOR_MZ=124.0066148879475
64.9704 1.0 
79.9575 66.1 
106.981 1.3 
123.9022 1.2 
124.0076 100.0 
END IONS

BEGIN IONS
TITLE=EMBL_MCF_2_0_HRMS_Library000376
PEPMASS=267.04794
CHARGE=1-
PRECURSOR_TYPE=[M-H]-
PRECURSOR_MZ=267.04794
COLLISION_ENERGY=50.0
SMILES=[H]OC(=O)C([H])(N([H])[H])C([H])([H])C([H])([H])SSC([H])([H])C([H])([H])C([H])(C(=O)O[H])N([H])[H]
FORMULA=C8H16N2O4S2
THEORETICAL_PRECURSOR_MZ=267.047325
PPM=2.302962592799035
SIMULATED_PRECURSOR_MZ=267.04452852051077
70.9962 32.6 
72.0092 100.0 
88.0227 24.8 
88.0294 1.6 
114.9861 56.9 
132.0127 42.8 
134.0283 27.8 
166.0007 1.1 
END IONS

BEGIN IONS
TITLE=EMBL_MCF_2_0_HRMS_Library000370
PEPMASS=239.0166
CHARGE=1-
PRECURSOR_TYPE=[M-H]-
PRECURSOR_MZ=239.0166
COLLISION_ENERGY=50.0
SMILES=[H]OC(=O)C([H])(N([H])[H])C([H])([H])SSC([H])([H])C([H])(C(=O)O[H])N([H])[H]
FORMULA=C6H12N2O4S2
THEORETICAL_PRECURSOR_MZ=239.016025
PPM=2.4056964381269905
SIMULATED_PRECURSOR_MZ=239.01818368810854
64.9527 20.2 
71.9915 6.4 
74.0071 96.9 
86.0248 13.9 
86.0309 1.2 
117.9972 4.7 
120.0127 100.0 
151.9846 10.6 
END IONS

BEGIN IONS
TITLE=EMBL_MCF_2_0_HRMS_Library000367
PEPMASS=132.0302
CHARGE=1-
PRECURSOR_TYPE=[M-H]-
PRECURSOR_MZ=132.0302
COLLISION_ENERGY=50.0
SMILES=[H]OC(=O)C([H])([H])C([H])(C(=O)O[H])N([H])[H]
FORMULA=C4H7NO4
THEORETICAL_PRECURSOR_MZ=132.029684
PPM=3.908212035140702
SIMULATED_PRECURSOR_MZ=132.0310311197947
59.0138 1.3 
71.014 18.4 
72.0093 3.0 
88.0405 100.0 
114.0199 4.9 
115.0039 25.6 
132.0304 50.9 
END IONS

BEGIN IONS
TITLE=EMBL_MCF_2_0_HRMS_Library000366
PEPMASS=173.1044
CHARGE=1-
PRECURSOR_TYPE=[M-H]-
PRECURSOR_MZ=173.1044
COLLISION_ENERGY=50.0
SMILES=[H]N=C(N([H])[H])N([H])C([H])([H])C([H])([H])C([H])([H])C([H])(C(=O)O[H])N([H])[H]
FORMULA=C6H14N4O2
THEORETICAL_PRECURSOR_MZ=173.10385100000002
PPM=3.171506565605812
SIMULATED_PRECURSOR_MZ=173.10315585340553
41.0146 3.8 
58.0413 1.1 
114.0566 1.4 
131.0829 100.0 
156.078 3.3 
173.1048 7.0 
END IONS

BEGIN IONS
TITLE=EMBL_MCF_2_0_HRMS_Library000364
PEPMASS=146.0459
CHARGE=1-
PRECURSOR_TYPE=[M-H]-
PRECURSOR_MZ=146.0459
COLLISION_ENERGY=50.0
SMILES=[H]OC(=O)C([H])([H])C([H])([H])C([H])(C(=O)O[H])N([H])[H]
FORMULA=C5H9NO4
THEORETICAL_PRECURSOR_MZ=146.045334
PPM=3.87550895663721
SIMULATED_PRECURSOR_MZ=146.04509075526877
74.0249 1.5 
85.0296 1.4 
102.0563 100.0 
128.0356 43.8 
146.0462 37.4 
END IONS

BEGIN IONS
TITLE=EMBL_MCF_2_0_HRMS_Library000357
PEPMASS=146.0459
CHARGE=1-
PRECURSOR_TYPE=[M-H]-
PRECURSOR_MZ=146.0459
COLLISION_ENERGY=50.0
SMILES=[H]OC(=O)C([H])(N([H])[H])C([H])([H])OC(=O)C([H])([H])[H]
FORMULA=C5H9NO4
THEORETICAL_PRECURSOR_MZ=146.045334
PPM=3.87550895663721
SIMULATED_PRECURSOR_MZ=146.0453225828948
41.0033 13.8 
41.9986 3.5 
57.0347 11.6 
58.0299 1.6 
60.9931 2.6 
70.0299 2.2 
72.0456 20.7 
74.0249 100.0 
84.0456 53.3 
98.0249 35.7 
104.0355 11.0 
116.0355 48.2 
146.0462 24.9 
END IONS

BEGIN IONS
TITLE=EMBL_MCF_2_0_HRMS_Library000350
PEPMASS=308.0987
CHARGE=1-
PRECURSOR_TYPE=[M-H]-
PRECURSOR_MZ=308.0987
COLLISION_ENERGY=50.0
SMILES=[H]OC(=O)C1(O[H])OC([H])(C([H])(O[H])C([H])(O[H])C([H])([H])O[H])C([H])(N([H])C(=O)C([H])([H])[H])C([H])(O[H])C1([H])[H]
FORMULA=C11H19NO9
THEORETICAL_PRECURSOR_MZ=308.098159
PPM=1.7559338937768478
SIMULATED_PRECURSOR_MZ=308.0968209278586
51.6586 3.3 
53.9992 3.7 
87.0089 100.0 
94.9291 3.6 
98.061 16.2 
142.7572 3.6 
163.3082 3.5 
170.0458 14.4 
189.4422 3.6 
222.2917 3.8 
258.9663 3.7 
288.2004 3.6 
END IONS

BEGIN IONS
TITLE=EMBL_MCF_2_0_HRMS_Library000347
PEPMASS=88.04044
CHARGE=1-
PRECURSOR_TYPE=[M-H]-
PRECURSOR_MZ=88.04044
COLLISION_ENERGY=50.0
SMILES=[H]OC(=O)C([H])([H])N([H])C([H])([H])[H]
FORMULA=C3H7NO2
THEORETICAL_PRECURSOR_MZ=88.039854
PPM=6.65607646280764
SIMULATED_PRECURSOR_MZ=88.03964033406393
45.77 1.7 
46.0654 1.6 
62.0101 1.7 
71.6379 1.7 
79.0179 1.9 
79.107 1.5 
80.0905 1.7 
88.0406 100.0 
END IONS

BEGIN IONS
TITLE=EMBL_MCF_2_0_HRMS_Library000344
PEPMASS=341.1089
CHARGE=1-
PRECURSOR_TYPE=[M-H]-
PRECURSOR_MZ=341.1089
COLLISION_ENERGY=50.0
SMILES=[H]OC([H])([H])C1([H])OC([H])(OC2(C([H])([H])O[H])OC([H])(C([H])([H])O[H])C([H])(O[H])C2([H])O[H])C([H])(O[H])C([H])(O[H])C1([H])O[H]
FORMULA=C12H22O11
THEORETICAL_PRECURSOR_MZ=341.10839
PPM=1.4951259334892713
SIMULATED_PRECURSOR_MZ=341.1115785605553
59.0139 100.0 
59.8303 5.1 
66.3518 4.6 
71.0139 45.5 
73.4686 5.1 
78.5258 5.3 
89.0247 56.9 
101.0247 15.7 
113.0246 13.5 
119.0356 10.2 
129.9508 4.7 
163.3332 5.2 
199.2795 5.7 
END IONS

BEGIN IONS
TITLE=EMBL_MCF_2_0_HRMS_Library000342
PEPMASS=220.08273
CHARGE=1-
PRECURSOR_TYPE=[M-H]-
PRECURSOR_MZ=220.08273
COLLISION_ENERGY=50.0
SMILES=[H]OC([H])([H])C1([H])OC([H])(O[H])C([H])(N([H])C(=O)C([H])([H])[H])C([H])(O[H])C1([H])O[H]
FORMULA=C8H15NO6
THEORETICAL_PRECURSOR_MZ=220.08211400000002
PPM=2.79895530256276
SIMULATED_PRECURSOR_MZ=220.07660751470314
55.0191 2.2 
58.03 5.1 
59.0139 100.0 
61.9887 3.4 
71.0141 5.1 
82.03 1.4 
83.0138 1.5 
87.4118 1.4 
87.478 1.3 
89.0245 6.8 
99.5108 1.1 
100.0406 18.5 
101.0248 6.6 
119.0352 2.9 
147.7084 1.4 
158.1244 1.3 
182.8975 1.7 
END IONS

BEGIN IONS
TITLE=EMBL_MCF_2_0_HRMS_Library000341
PEPMASS=188.1041
CHARGE=1-
PRECURSOR_TYPE=[M-H]-
PRECURSOR_MZ=188.1041
COLLISION_ENERGY=50.0
SMILES=[H]OC(=O)C([H])(N([H])[H])C([H])([H])C([H])([H])C([H])([H])C([H])([H])N([H])C(=O)N([H])[H]
FORMULA=C7H15N3O3
THEORETICAL_PRECURSOR_MZ=188.103517
PPM=3.0993572543227548
SIMULATED_PRECURSOR_MZ=188.1035795922217
127.0877 1.6 
128.072 1.6 
145.0985 100.0 
171.0779 2.8 
188.1041 2.4 
END IONS

BEGIN IONS
TITLE=EMBL_MCF_2_0_HRMS_Library000336
PEPMASS=391.2854
CHARGE=1-
PRECURSOR_TYPE=[M-H]-
PRECURSOR_MZ=391.2854
COLLISION_ENERGY=50.0
SMILES=[H]OC(=O)C([H])([H])C([H])([H])C([H])(C([H])([H])[H])C1([H])C([H])([H])C([H])([H])C2([H])C3([H])C([H])([H])C([H])([H])C4([H])C([H])([H])C([H])(O[H])C([H])([H])C([H])([H])C4(C([H])([H])[H])C3([H])C([H])([H])C([H])(O[H])C12C([H])([H])[H]
FORMULA=C24H40O4
THEORETICAL_PRECURSOR_MZ=391.284835
PPM=1.4439608935894426
SIMULATED_PRECURSOR_MZ=391.28199843202356
327.2706 3.1 
329.2868 1.3 
343.2645 4.5 
345.2804 9.7 
347.2946 2.5 
355.2652 2.0 
365.3058 2.2 
391.2857 100.0 
END IONS

BEGIN IONS
TITLE=EMBL_MCF_2_0_HRMS_Library000335
PEPMASS=498.2895
CHARGE=1-
PRECURSOR_TYPE=[M-H]-
PRECURSOR_MZ=498.2895
COLLISION_ENERGY=50.0
SMILES=[H]OC1([H])C([H])([H])C([H])([H])C2(C([H])([H])[H])C([H])(C([H])([H])C([H])([H])C3([H])C2([H])C([H])([H])C([H])(O[H])C2(C([H])([H])[H])C([H])(C([H])(C([H])([H])[H])C([H])([H])C([H])([H])C(=O)N([H])C([H])([H])C([H])([H])S(=O)(=O)O[H])C([H])([H])C([H])([H])C32[H])C1([H])[H]
FORMULA=C26H45NO6S
THEORETICAL_PRECURSOR_MZ=498.28893500000004
PPM=1.133880285617328
SIMULATED_PRECURSOR_MZ=498.28281369813686
79.9575 5.3 
80.9653 2.1 
106.981 3.0 
124.0076 3.8 
498.2899 100.0 
END IONS

BEGIN IONS
TITLE=EMBL_MCF_2_0_HRMS_Library000334
PEPMASS=131.0714
CHARGE=1-
PRECURSOR_TYPE=[M-H]-
PRECURSOR_MZ=131.0714
COLLISION_ENERGY=50.0
SMILES=[H]OC(=O)C([H])(O[H])C([H])([H])C([H])(C([H])([H])[H])C([H])([H])[H]
FORMULA=C6H12O3
THEORETICAL_PRECURSOR_MZ=131.07082
PPM=4.425088665910304
SIMULATED_PRECURSOR_MZ=131.0716264085636
69.0347 8.5 
85.066 100.0 
113.061 3.0 
129.0557 1.6 
131.0716 92.4 
END IONS

BEGIN IONS
TITLE=EMBL_MCF_2_0_HRMS_Library000329
PEPMASS=243.0809
CHARGE=1-
PRECURSOR_TYPE=[M-H]-
PRECURSOR_MZ=243.0809
COLLISION_ENERGY=50.0
SMILES=[H]OC(=O)C([H])([H])C([H])([H])C([H])([H])C([H])([H])C1([H])SC([H])([H])C2([H])N([H])C(=O)N([H])C12[H]
FORMULA=C10H16N2O3S
THEORETICAL_PRECURSOR_MZ=243.080339
PPM=2.3078789601519216
SIMULATED_PRECURSOR_MZ=243.07599336144705
61.7564 1.1 
68.0506 6.5 
71.9917 2.0 
74.007 8.5 
74.8786 1.2 
82.7224 1.1 
90.1909 1.0 
94.7428 1.3 
95.0254 3.6 
97.0413 1.5 
103.0589 3.4 
111.0568 2.7 
114.5735 1.2 
122.0978 13.7 
139.0588 5.3 
153.1034 1.4 
154.0875 2.8 
156.0859 13.3 
165.1037 5.7 
166.0876 42.1 
186.8661 1.4 
191.0825 1.3 
197.0925 4.9 
199.0908 5.2 
200.0754 58.7 
203.5834 1.5 
209.0933 4.7 
243.081 100.0 
END IONS

BEGIN IONS
TITLE=EMBL_MCF_2_0_HRMS_Library000328
PEPMASS=173.0092
CHARGE=1-
PRECURSOR_TYPE=[M-H]-
PRECURSOR_MZ=173.0092
COLLISION_ENERGY=50.0
SMILES=[H]OC(=O)C([H])=C(C(=O)O[H])C([H])([H])C(=O)O[H]
FORMULA=C6H6O6
THEORETICAL_PRECURSOR_MZ=173.008615
PPM=3.381334507538517
SIMULATED_PRECURSOR_MZ=173.0089898725635
67.0192 1.0 
85.0297 100.0 
111.009 9.4 
129.0196 16.9 
173.0092 1.5 
END IONS

BEGIN IONS
TITLE=EMBL_MCF_2_0_HRMS_Library000324
PEPMASS=89.0244
CHARGE=1-
PRECURSOR_TYPE=[M-H]-
PRECURSOR_MZ=89.0244
COLLISION_ENERGY=50.0
SMILES=[H]OC([H])([H])C([H])(O[H])C([H])=O
FORMULA=C3H6O3
THEORETICAL_PRECURSOR_MZ=89.02387000000002
PPM=5.953459448387135
SIMULATED_PRECURSOR_MZ=89.0235409199675
41.0034 11.0 
42.5235 1.6 
43.019 22.4 
44.9982 3.6 
58.3766 1.8 
59.014 100.0 
71.0141 15.4 
89.0246 27.8 
END IONS

BEGIN IONS
TITLE=EMBL_MCF_2_0_HRMS_Library000319
PEPMASS=133.0142
CHARGE=1-
PRECURSOR_TYPE=[M-H]-
PRECURSOR_MZ=133.0142
COLLISION_ENERGY=50.0
SMILES=[H]OC(=O)C([H])([H])C([H])(O[H])C(=O)O[H]
FORMULA=C4H6O5
THEORETICAL_PRECURSOR_MZ=133.0137
PPM=3.759011289725619
SIMULATED_PRECURSOR_MZ=133.01420660577767
41.0033 1.5 
43.019 9.6 
59.014 2.3 
71.014 65.0 
72.9933 17.1 
87.0089 2.2 
89.0246 7.7 
115.0039 100.0 
133.0145 46.2 
END IONS

BEGIN IONS
TITLE=EMBL_MCF_2_0_HRMS_Library000318
PEPMASS=174.0408
CHARGE=1-
PRECURSOR_TYPE=[M-H]-
PRECURSOR_MZ=174.0408
COLLISION_ENERGY=50.0
SMILES=[H]OC(=O)C([H])([H])C([H])(C(=O)O[H])N([H])C(=O)C([H])([H])[H]
FORMULA=C6H9NO5
THEORETICAL_PRECURSOR_MZ=174.040249
PPM=3.1659343351176346
SIMULATED_PRECURSOR_MZ=174.03658826810724
41.9987 5.7 
58.03 59.8 
59.014 18.2 
70.03 2.2 
71.014 10.0 
88.0406 100.0 
96.9933 3.9 
112.0408 3.8 
114.0199 12.2 
115.004 11.5 
130.0513 19.5 
132.0307 1.5 
156.0306 3.7 
174.041 18.6 
END IONS

BEGIN IONS
TITLE=EMBL_MCF_2_0_HRMS_Library000311
PEPMASS=173.00922
CHARGE=1-
PRECURSOR_TYPE=[M-H]-
PRECURSOR_MZ=173.00922
COLLISION_ENERGY=50.0
SMILES=[H]OC(=O)C([H])=C(C(=O)O[H])C([H])([H])C(=O)O[H]
FORMULA=C6H6O6
THEORETICAL_PRECURSOR_MZ=173.008615
PPM=3.49693568731993
SIMULATED_PRECURSOR_MZ=173.00820175341605
52.5441 3.0 
62.6106 2.8 
63.4683 2.6 
69.3904 3.0 
72.1288 3.3 
72.8473 3.1 
78.5374 3.2 
85.0296 100.0 
109.2855 2.9 
129.0196 12.0 
133.0182 3.2 
154.9478 4.4 
157.5625 3.3 
159.1655 2.9 
END IONS

BEGIN IONS
TITLE=EMBL_MCF_2_0_HRMS_Library000308
PEPMASS=173.0932
CHARGE=1-
PRECURSOR_TYPE=[M-H]-
PRECURSOR_MZ=173.0932
COLLISION_ENERGY=50.0
SMILES=[H]OC(=O)C([H])(N=C(O[H])C([H])([H])[H])C([H])([H])C([H])([H])C([H])([H])N([H])[H]
FORMULA=C7H14N2O3
THEORETICAL_PRECURSOR_MZ=173.092618
PPM=3.362361761773805
SIMULATED_PRECURSOR_MZ=173.0902233931632
41.9986 1.8 
58.0299 15.5 
83.0616 3.6 
85.0771 1.4 
112.077 3.9 
129.1037 11.5 
131.0829 100.0 
173.0934 15.1 
END IONS

BEGIN IONS
TITLE=EMBL_MCF_2_0_HRMS_Library000305
PEPMASS=258.0384
CHARGE=1-
PRECURSOR_TYPE=[M-H]-
PRECURSOR_MZ=258.0384
COLLISION_ENERGY=50.0
SMILES=[H]OC1([H])OC([H])(C([H])([H])OP(=O)(O[H])O[H])C([H])(O[H])C([H])(O[H])C1([H])N([H])[H]
FORMULA=C6H14NO8P
THEORETICAL_PRECURSOR_MZ=258.03788099999997
PPM=2.011332592108416
SIMULATED_PRECURSOR_MZ=258.03698845467596
78.9592 63.9 
96.9697 100.0 
138.9804 6.0 
199.0012 5.2 
240.028 3.4 
258.0381 3.2 
END IONS

BEGIN IONS
TITLE=EMBL_MCF_2_0_HRMS_Library000304
PEPMASS=187.12
CHARGE=1-
PRECURSOR_TYPE=[M-H]-
PRECURSOR_MZ=187.12
COLLISION_ENERGY=50.0
SMILES=[H]N=C(N([H])[H])N([H])C([H])([H])C([H])([H])C([H])([H])C([H])([H])C([H])(C(=O)O[H])N([H])[H]
FORMULA=C7H16N4O2
THEORETICAL_PRECURSOR_MZ=187.119501
PPM=2.6667450336493856
SIMULATED_PRECURSOR_MZ=187.12041856809515
126.1041 1.2 
128.0718 5.2 
145.0985 100.0 
170.0938 15.3 
187.1203 16.9 
END IONS

BEGIN IONS
TITLE=EMBL_MCF_2_0_HRMS_Library000302
PEPMASS=162.023
CHARGE=1-
PRECURSOR_TYPE=[M-H]-
PRECURSOR_MZ=162.023
COLLISION_ENERGY=50.0
SMILES=[H]OC(=O)C([H])(N([H])C(=O)C([H])([H])[H])C([H])([H])S[H]
FORMULA=C5H9NO3S
THEORETICAL_PRECURSOR_MZ=162.02249
PPM=3.147711160292319
SIMULATED_PRECURSOR_MZ=162.0244954816103
41.0035 2.9 
41.9683 2.1 
57.0347 9.3 
66.502 1.8 
84.0456 100.0 
138.6213 1.8 
162.0232 14.1 
END IONS

BEGIN IONS
TITLE=EMBL_MCF_2_0_HRMS_Library000301
PEPMASS=135.0299
CHARGE=1-
PRECURSOR_TYPE=[M-H]-
PRECURSOR_MZ=135.0299
COLLISION_ENERGY=50.0
SMILES=[H]OC(=O)C([H])(O[H])C([H])(O[H])C([H])([H])O[H]
FORMULA=C4H8O5
THEORETICAL_PRECURSOR_MZ=135.02935
PPM=4.073188532745268
SIMULATED_PRECURSOR_MZ=135.03177721331474
44.9983 2.7 
55.019 1.8 
56.9983 6.0 
59.0139 15.8 
71.014 3.7 
72.9933 2.2 
75.0089 100.0 
87.009 1.0 
89.0245 10.0 
117.0195 2.9 
134.8948 3.7 
135.0301 52.0 
END IONS

BEGIN IONS
TITLE=EMBL_MCF_2_0_HRMS_Library000298
PEPMASS=338.9888
CHARGE=1-
PRECURSOR_TYPE=[M-H]-
PRECURSOR_MZ=338.9888
COLLISION_ENERGY=50.0
SMILES=[H]OC1([H])C([H])(C([H])([H])OP(=O)(O[H])O[H])OC(O[H])(C([H])([H])OP(=O)(O[H])O[H])C1([H])O[H]
FORMULA=C6H14O12P2
THEORETICAL_PRECURSOR_MZ=338.988229
PPM=1.6844242695999114
SIMULATED_PRECURSOR_MZ=338.9919045351716
59.1515 1.4 
73.6915 1.1 
78.9592 51.3 
96.9697 100.0 
131.0136 1.2 
138.9806 5.3 
150.9806 2.2 
158.9251 6.3 
168.9916 1.4 
176.9363 4.9 
216.417 1.1 
241.0117 5.2 
338.9912 1.9 
END IONS
